\* Service_Selection_Problem *\
Minimize
OBJ: 0.0555555555556 details_aws_us_east_1_details_aws_us_east_1
 + details_aws_us_east_1_details_gcp_asia_east_1
 + 0.731638418079 details_aws_us_east_1_details_gcp_eu_west_1
 + 0.838983050847 details_aws_us_east_1_product_page_aws_sa_east_1
 + 0.0555555555556 details_aws_us_east_1_product_page_aws_us_east_1
 + details_aws_us_east_1_product_page_gcp_asia_east_1
 + 0.731638418079 details_aws_us_east_1_product_page_gcp_eu_west_1
 + 0.677966101695 details_aws_us_east_1_product_page_gcp_us_west_1
 + details_aws_us_east_1_rating_gcp_asia_east_1
 + 0.731638418079 details_aws_us_east_1_rating_gcp_eu_west_1
 + 0.677966101695 details_aws_us_east_1_rating_gcp_us_west_1
 + 0.838983050847 details_aws_us_east_1_review_aws_sa_east_1
 + 0.0555555555556 details_aws_us_east_1_review_aws_us_east_1
 + 0.731638418079 details_aws_us_east_1_review_gcp_eu_west_1
 + 0.807291666667 details_gcp_asia_east_1_details_aws_us_east_1
 + 0.835858585859 details_gcp_asia_east_1_details_gcp_eu_west_1
 + details_gcp_asia_east_1_product_page_aws_sa_east_1
 + 0.807291666667 details_gcp_asia_east_1_product_page_aws_us_east_1
 + 0.835858585859 details_gcp_asia_east_1_product_page_gcp_eu_west_1
 + 0.568497474747 details_gcp_asia_east_1_product_page_gcp_us_west_1
 + 0.835858585859 details_gcp_asia_east_1_rating_gcp_eu_west_1
 + 0.568497474747 details_gcp_asia_east_1_rating_gcp_us_west_1
 + details_gcp_asia_east_1_review_aws_sa_east_1
 + 0.807291666667 details_gcp_asia_east_1_review_aws_us_east_1
 + 0.835858585859 details_gcp_asia_east_1_review_gcp_eu_west_1
 + 0.652014652015 details_gcp_eu_west_1_details_aws_us_east_1
 + 0.863636363636 details_gcp_eu_west_1_details_gcp_asia_east_1
 + 0.884615384615 details_gcp_eu_west_1_product_page_aws_sa_east_1
 + 0.652014652015 details_gcp_eu_west_1_product_page_aws_us_east_1
 + 0.863636363636 details_gcp_eu_west_1_product_page_gcp_asia_east_1
 + 0.69696969697 details_gcp_eu_west_1_product_page_gcp_us_west_1
 + 0.863636363636 details_gcp_eu_west_1_rating_gcp_asia_east_1
 + 0.69696969697 details_gcp_eu_west_1_rating_gcp_us_west_1
 + 0.884615384615 details_gcp_eu_west_1_review_aws_sa_east_1
 + 0.652014652015 details_gcp_eu_west_1_review_aws_us_east_1
 + 0.706597222222 product_page_aws_sa_east_1_details_aws_us_east_1
 + product_page_aws_sa_east_1_details_gcp_asia_east_1
 + 0.862847222222 product_page_aws_sa_east_1_details_gcp_eu_west_1
 + 0.0333333333333 product_page_aws_sa_east_1_product_page_aws_sa_east_1
 + 0.706597222222 product_page_aws_sa_east_1_product_page_aws_us_east_1
 + product_page_aws_sa_east_1_product_page_gcp_asia_east_1
 + 0.862847222222 product_page_aws_sa_east_1_product_page_gcp_eu_west_1
 + 0.802083333333 product_page_aws_sa_east_1_product_page_gcp_us_west_1
 + product_page_aws_sa_east_1_rating_gcp_asia_east_1
 + 0.862847222222 product_page_aws_sa_east_1_rating_gcp_eu_west_1
 + 0.802083333333 product_page_aws_sa_east_1_rating_gcp_us_west_1
 + 0.0333333333333 product_page_aws_sa_east_1_review_aws_sa_east_1
 + 0.706597222222 product_page_aws_sa_east_1_review_aws_us_east_1
 + 0.862847222222 product_page_aws_sa_east_1_review_gcp_eu_west_1
 + 0.0555555555556 product_page_aws_us_east_1_details_aws_us_east_1
 + product_page_aws_us_east_1_details_gcp_asia_east_1
 + 0.731638418079 product_page_aws_us_east_1_details_gcp_eu_west_1
 + 0.838983050847 product_page_aws_us_east_1_product_page_aws_sa_east_1
 + 0.0555555555556 product_page_aws_us_east_1_product_page_aws_us_east_1
 + product_page_aws_us_east_1_product_page_gcp_asia_east_1
 + 0.731638418079 product_page_aws_us_east_1_product_page_gcp_eu_west_1
 + 0.677966101695 product_page_aws_us_east_1_product_page_gcp_us_west_1
 + product_page_aws_us_east_1_rating_gcp_asia_east_1
 + 0.731638418079 product_page_aws_us_east_1_rating_gcp_eu_west_1
 + 0.677966101695 product_page_aws_us_east_1_rating_gcp_us_west_1
 + 0.838983050847 product_page_aws_us_east_1_review_aws_sa_east_1
 + 0.0555555555556 product_page_aws_us_east_1_review_aws_us_east_1
 + 0.731638418079 product_page_aws_us_east_1_review_gcp_eu_west_1
 + 0.807291666667 product_page_gcp_asia_east_1_details_aws_us_east_1
 + 0.835858585859 product_page_gcp_asia_east_1_details_gcp_eu_west_1
 + product_page_gcp_asia_east_1_product_page_aws_sa_east_1
 + 0.807291666667 product_page_gcp_asia_east_1_product_page_aws_us_east_1
 + 0.835858585859 product_page_gcp_asia_east_1_product_page_gcp_eu_west_1
 + 0.568497474747 product_page_gcp_asia_east_1_product_page_gcp_us_west_1
 + 0.835858585859 product_page_gcp_asia_east_1_rating_gcp_eu_west_1
 + 0.568497474747 product_page_gcp_asia_east_1_rating_gcp_us_west_1
 + product_page_gcp_asia_east_1_review_aws_sa_east_1
 + 0.807291666667 product_page_gcp_asia_east_1_review_aws_us_east_1
 + 0.835858585859 product_page_gcp_asia_east_1_review_gcp_eu_west_1
 + 0.652014652015 product_page_gcp_eu_west_1_details_aws_us_east_1
 + 0.863636363636 product_page_gcp_eu_west_1_details_gcp_asia_east_1
 + 0.884615384615 product_page_gcp_eu_west_1_product_page_aws_sa_east_1
 + 0.652014652015 product_page_gcp_eu_west_1_product_page_aws_us_east_1
 + 0.863636363636 product_page_gcp_eu_west_1_product_page_gcp_asia_east_1
 + 0.69696969697 product_page_gcp_eu_west_1_product_page_gcp_us_west_1
 + 0.863636363636 product_page_gcp_eu_west_1_rating_gcp_asia_east_1
 + 0.69696969697 product_page_gcp_eu_west_1_rating_gcp_us_west_1
 + 0.884615384615 product_page_gcp_eu_west_1_review_aws_sa_east_1
 + 0.652014652015 product_page_gcp_eu_west_1_review_aws_us_east_1
 + 0.675141242938 product_page_gcp_us_west_1_details_aws_us_east_1
 + 0.69696969697 product_page_gcp_us_west_1_details_gcp_asia_east_1
 + 0.863636363636 product_page_gcp_us_west_1_details_gcp_eu_west_1
 + 0.991525423729 product_page_gcp_us_west_1_product_page_aws_sa_east_1
 + 0.675141242938 product_page_gcp_us_west_1_product_page_aws_us_east_1
 + 0.69696969697 product_page_gcp_us_west_1_product_page_gcp_asia_east_1
 + 0.863636363636 product_page_gcp_us_west_1_product_page_gcp_eu_west_1
 + 0.69696969697 product_page_gcp_us_west_1_rating_gcp_asia_east_1
 + 0.863636363636 product_page_gcp_us_west_1_rating_gcp_eu_west_1
 + 0.991525423729 product_page_gcp_us_west_1_review_aws_sa_east_1
 + 0.675141242938 product_page_gcp_us_west_1_review_aws_us_east_1
 + 0.863636363636 product_page_gcp_us_west_1_review_gcp_eu_west_1
 + 0.807291666667 rating_gcp_asia_east_1_details_aws_us_east_1
 + 0.835858585859 rating_gcp_asia_east_1_details_gcp_eu_west_1
 + rating_gcp_asia_east_1_product_page_aws_sa_east_1
 + 0.807291666667 rating_gcp_asia_east_1_product_page_aws_us_east_1
 + 0.835858585859 rating_gcp_asia_east_1_product_page_gcp_eu_west_1
 + 0.568497474747 rating_gcp_asia_east_1_product_page_gcp_us_west_1
 + 0.835858585859 rating_gcp_asia_east_1_rating_gcp_eu_west_1
 + 0.568497474747 rating_gcp_asia_east_1_rating_gcp_us_west_1
 + rating_gcp_asia_east_1_review_aws_sa_east_1
 + 0.807291666667 rating_gcp_asia_east_1_review_aws_us_east_1
 + 0.835858585859 rating_gcp_asia_east_1_review_gcp_eu_west_1
 + 0.652014652015 rating_gcp_eu_west_1_details_aws_us_east_1
 + 0.863636363636 rating_gcp_eu_west_1_details_gcp_asia_east_1
 + 0.884615384615 rating_gcp_eu_west_1_product_page_aws_sa_east_1
 + 0.652014652015 rating_gcp_eu_west_1_product_page_aws_us_east_1
 + 0.863636363636 rating_gcp_eu_west_1_product_page_gcp_asia_east_1
 + 0.69696969697 rating_gcp_eu_west_1_product_page_gcp_us_west_1
 + 0.863636363636 rating_gcp_eu_west_1_rating_gcp_asia_east_1
 + 0.69696969697 rating_gcp_eu_west_1_rating_gcp_us_west_1
 + 0.884615384615 rating_gcp_eu_west_1_review_aws_sa_east_1
 + 0.652014652015 rating_gcp_eu_west_1_review_aws_us_east_1
 + 0.675141242938 rating_gcp_us_west_1_details_aws_us_east_1
 + 0.69696969697 rating_gcp_us_west_1_details_gcp_asia_east_1
 + 0.863636363636 rating_gcp_us_west_1_details_gcp_eu_west_1
 + 0.991525423729 rating_gcp_us_west_1_product_page_aws_sa_east_1
 + 0.675141242938 rating_gcp_us_west_1_product_page_aws_us_east_1
 + 0.69696969697 rating_gcp_us_west_1_product_page_gcp_asia_east_1
 + 0.863636363636 rating_gcp_us_west_1_product_page_gcp_eu_west_1
 + 0.69696969697 rating_gcp_us_west_1_rating_gcp_asia_east_1
 + 0.863636363636 rating_gcp_us_west_1_rating_gcp_eu_west_1
 + 0.991525423729 rating_gcp_us_west_1_review_aws_sa_east_1
 + 0.675141242938 rating_gcp_us_west_1_review_aws_us_east_1
 + 0.863636363636 rating_gcp_us_west_1_review_gcp_eu_west_1
 + 0.706597222222 review_aws_sa_east_1_details_aws_us_east_1
 + review_aws_sa_east_1_details_gcp_asia_east_1
 + 0.862847222222 review_aws_sa_east_1_details_gcp_eu_west_1
 + 0.0333333333333 review_aws_sa_east_1_product_page_aws_sa_east_1
 + 0.706597222222 review_aws_sa_east_1_product_page_aws_us_east_1
 + review_aws_sa_east_1_product_page_gcp_asia_east_1
 + 0.862847222222 review_aws_sa_east_1_product_page_gcp_eu_west_1
 + 0.802083333333 review_aws_sa_east_1_product_page_gcp_us_west_1
 + review_aws_sa_east_1_rating_gcp_asia_east_1
 + 0.862847222222 review_aws_sa_east_1_rating_gcp_eu_west_1
 + 0.802083333333 review_aws_sa_east_1_rating_gcp_us_west_1
 + 0.0333333333333 review_aws_sa_east_1_review_aws_sa_east_1
 + 0.706597222222 review_aws_sa_east_1_review_aws_us_east_1
 + 0.862847222222 review_aws_sa_east_1_review_gcp_eu_west_1
 + 0.0555555555556 review_aws_us_east_1_details_aws_us_east_1
 + review_aws_us_east_1_details_gcp_asia_east_1
 + 0.731638418079 review_aws_us_east_1_details_gcp_eu_west_1
 + 0.838983050847 review_aws_us_east_1_product_page_aws_sa_east_1
 + 0.0555555555556 review_aws_us_east_1_product_page_aws_us_east_1
 + review_aws_us_east_1_product_page_gcp_asia_east_1
 + 0.731638418079 review_aws_us_east_1_product_page_gcp_eu_west_1
 + 0.677966101695 review_aws_us_east_1_product_page_gcp_us_west_1
 + review_aws_us_east_1_rating_gcp_asia_east_1
 + 0.731638418079 review_aws_us_east_1_rating_gcp_eu_west_1
 + 0.677966101695 review_aws_us_east_1_rating_gcp_us_west_1
 + 0.838983050847 review_aws_us_east_1_review_aws_sa_east_1
 + 0.0555555555556 review_aws_us_east_1_review_aws_us_east_1
 + 0.731638418079 review_aws_us_east_1_review_gcp_eu_west_1
 + 0.652014652015 review_gcp_eu_west_1_details_aws_us_east_1
 + 0.863636363636 review_gcp_eu_west_1_details_gcp_asia_east_1
 + 0.884615384615 review_gcp_eu_west_1_product_page_aws_sa_east_1
 + 0.652014652015 review_gcp_eu_west_1_product_page_aws_us_east_1
 + 0.863636363636 review_gcp_eu_west_1_product_page_gcp_asia_east_1
 + 0.69696969697 review_gcp_eu_west_1_product_page_gcp_us_west_1
 + 0.863636363636 review_gcp_eu_west_1_rating_gcp_asia_east_1
 + 0.69696969697 review_gcp_eu_west_1_rating_gcp_us_west_1
 + 0.884615384615 review_gcp_eu_west_1_review_aws_sa_east_1
 + 0.652014652015 review_gcp_eu_west_1_review_aws_us_east_1
Subject To
_C1: product_page_aws_us_east_1_review_aws_sa_east_1
 + product_page_aws_us_east_1_review_aws_us_east_1
 + product_page_aws_us_east_1_review_gcp_eu_west_1 = 28579
_C10: product_page_aws_sa_east_1_details_aws_us_east_1
 + product_page_aws_sa_east_1_details_gcp_asia_east_1
 + product_page_aws_sa_east_1_details_gcp_eu_west_1 = 28579
_C11: review_aws_sa_east_1_rating_gcp_asia_east_1
 + review_aws_sa_east_1_rating_gcp_eu_west_1
 + review_aws_sa_east_1_rating_gcp_us_west_1 = 14953
_C12: product_page_gcp_asia_east_1_review_aws_sa_east_1
 + product_page_gcp_asia_east_1_review_aws_us_east_1
 + product_page_gcp_asia_east_1_review_gcp_eu_west_1 = 28579
_C13: product_page_gcp_asia_east_1_details_aws_us_east_1
 + product_page_gcp_asia_east_1_details_gcp_asia_east_1
 + product_page_gcp_asia_east_1_details_gcp_eu_west_1 = 28579
_C14: details_aws_us_east_1_product_page_aws_us_east_1
 + details_gcp_asia_east_1_product_page_aws_us_east_1
 + details_gcp_eu_west_1_product_page_aws_us_east_1
 + product_page_aws_sa_east_1_product_page_aws_us_east_1
 + product_page_aws_us_east_1_product_page_aws_us_east_1
 + product_page_gcp_asia_east_1_product_page_aws_us_east_1
 + product_page_gcp_eu_west_1_product_page_aws_us_east_1
 + product_page_gcp_us_west_1_product_page_aws_us_east_1
 + rating_gcp_asia_east_1_product_page_aws_us_east_1
 + rating_gcp_eu_west_1_product_page_aws_us_east_1
 + rating_gcp_us_west_1_product_page_aws_us_east_1
 + review_aws_sa_east_1_product_page_aws_us_east_1
 + review_aws_us_east_1_product_page_aws_us_east_1
 + review_gcp_eu_west_1_product_page_aws_us_east_1 <= 30000
_C15: details_aws_us_east_1_review_aws_us_east_1
 + details_gcp_asia_east_1_review_aws_us_east_1
 + details_gcp_eu_west_1_review_aws_us_east_1
 + product_page_aws_sa_east_1_review_aws_us_east_1
 + product_page_aws_us_east_1_review_aws_us_east_1
 + product_page_gcp_asia_east_1_review_aws_us_east_1
 + product_page_gcp_eu_west_1_review_aws_us_east_1
 + product_page_gcp_us_west_1_review_aws_us_east_1
 + rating_gcp_asia_east_1_review_aws_us_east_1
 + rating_gcp_eu_west_1_review_aws_us_east_1
 + rating_gcp_us_west_1_review_aws_us_east_1
 + review_aws_sa_east_1_review_aws_us_east_1
 + review_aws_us_east_1_review_aws_us_east_1
 + review_gcp_eu_west_1_review_aws_us_east_1 <= 50000
_C16: details_aws_us_east_1_details_aws_us_east_1
 + details_gcp_asia_east_1_details_aws_us_east_1
 + details_gcp_eu_west_1_details_aws_us_east_1
 + product_page_aws_sa_east_1_details_aws_us_east_1
 + product_page_aws_us_east_1_details_aws_us_east_1
 + product_page_gcp_asia_east_1_details_aws_us_east_1
 + product_page_gcp_eu_west_1_details_aws_us_east_1
 + product_page_gcp_us_west_1_details_aws_us_east_1
 + rating_gcp_asia_east_1_details_aws_us_east_1
 + rating_gcp_eu_west_1_details_aws_us_east_1
 + rating_gcp_us_west_1_details_aws_us_east_1
 + review_aws_sa_east_1_details_aws_us_east_1
 + review_aws_us_east_1_details_aws_us_east_1
 + review_gcp_eu_west_1_details_aws_us_east_1 <= 50000
_C17: details_aws_us_east_1_product_page_gcp_us_west_1
 + details_gcp_asia_east_1_product_page_gcp_us_west_1
 + details_gcp_eu_west_1_product_page_gcp_us_west_1
 + product_page_aws_sa_east_1_product_page_gcp_us_west_1
 + product_page_aws_us_east_1_product_page_gcp_us_west_1
 + product_page_gcp_asia_east_1_product_page_gcp_us_west_1
 + product_page_gcp_eu_west_1_product_page_gcp_us_west_1
 + product_page_gcp_us_west_1_product_page_gcp_us_west_1
 + rating_gcp_asia_east_1_product_page_gcp_us_west_1
 + rating_gcp_eu_west_1_product_page_gcp_us_west_1
 + rating_gcp_us_west_1_product_page_gcp_us_west_1
 + review_aws_sa_east_1_product_page_gcp_us_west_1
 + review_aws_us_east_1_product_page_gcp_us_west_1
 + review_gcp_eu_west_1_product_page_gcp_us_west_1 <= 30000
_C18: details_aws_us_east_1_rating_gcp_us_west_1
 + details_gcp_asia_east_1_rating_gcp_us_west_1
 + details_gcp_eu_west_1_rating_gcp_us_west_1
 + product_page_aws_sa_east_1_rating_gcp_us_west_1
 + product_page_aws_us_east_1_rating_gcp_us_west_1
 + product_page_gcp_asia_east_1_rating_gcp_us_west_1
 + product_page_gcp_eu_west_1_rating_gcp_us_west_1
 + product_page_gcp_us_west_1_rating_gcp_us_west_1
 + rating_gcp_asia_east_1_rating_gcp_us_west_1
 + rating_gcp_eu_west_1_rating_gcp_us_west_1
 + rating_gcp_us_west_1_rating_gcp_us_west_1
 + review_aws_sa_east_1_rating_gcp_us_west_1
 + review_aws_us_east_1_rating_gcp_us_west_1
 + review_gcp_eu_west_1_rating_gcp_us_west_1 <= 50000
_C19: details_aws_us_east_1_product_page_gcp_eu_west_1
 + details_gcp_asia_east_1_product_page_gcp_eu_west_1
 + details_gcp_eu_west_1_product_page_gcp_eu_west_1
 + product_page_aws_sa_east_1_product_page_gcp_eu_west_1
 + product_page_aws_us_east_1_product_page_gcp_eu_west_1
 + product_page_gcp_asia_east_1_product_page_gcp_eu_west_1
 + product_page_gcp_eu_west_1_product_page_gcp_eu_west_1
 + product_page_gcp_us_west_1_product_page_gcp_eu_west_1
 + rating_gcp_asia_east_1_product_page_gcp_eu_west_1
 + rating_gcp_eu_west_1_product_page_gcp_eu_west_1
 + rating_gcp_us_west_1_product_page_gcp_eu_west_1
 + review_aws_sa_east_1_product_page_gcp_eu_west_1
 + review_aws_us_east_1_product_page_gcp_eu_west_1
 + review_gcp_eu_west_1_product_page_gcp_eu_west_1 <= 30000
_C2: product_page_aws_us_east_1_details_aws_us_east_1
 + product_page_aws_us_east_1_details_gcp_asia_east_1
 + product_page_aws_us_east_1_details_gcp_eu_west_1 = 28579
_C20: details_aws_us_east_1_review_gcp_eu_west_1
 + details_gcp_asia_east_1_review_gcp_eu_west_1
 + details_gcp_eu_west_1_review_gcp_eu_west_1
 + product_page_aws_sa_east_1_review_gcp_eu_west_1
 + product_page_aws_us_east_1_review_gcp_eu_west_1
 + product_page_gcp_asia_east_1_review_gcp_eu_west_1
 + product_page_gcp_eu_west_1_review_gcp_eu_west_1
 + product_page_gcp_us_west_1_review_gcp_eu_west_1
 + rating_gcp_asia_east_1_review_gcp_eu_west_1
 + rating_gcp_eu_west_1_review_gcp_eu_west_1
 + rating_gcp_us_west_1_review_gcp_eu_west_1
 + review_aws_sa_east_1_review_gcp_eu_west_1
 + review_aws_us_east_1_review_gcp_eu_west_1
 + review_gcp_eu_west_1_review_gcp_eu_west_1 <= 50000
_C21: details_aws_us_east_1_rating_gcp_eu_west_1
 + details_gcp_asia_east_1_rating_gcp_eu_west_1
 + details_gcp_eu_west_1_rating_gcp_eu_west_1
 + product_page_aws_sa_east_1_rating_gcp_eu_west_1
 + product_page_aws_us_east_1_rating_gcp_eu_west_1
 + product_page_gcp_asia_east_1_rating_gcp_eu_west_1
 + product_page_gcp_eu_west_1_rating_gcp_eu_west_1
 + product_page_gcp_us_west_1_rating_gcp_eu_west_1
 + rating_gcp_asia_east_1_rating_gcp_eu_west_1
 + rating_gcp_eu_west_1_rating_gcp_eu_west_1
 + rating_gcp_us_west_1_rating_gcp_eu_west_1
 + review_aws_sa_east_1_rating_gcp_eu_west_1
 + review_aws_us_east_1_rating_gcp_eu_west_1
 + review_gcp_eu_west_1_rating_gcp_eu_west_1 <= 50000
_C22: details_aws_us_east_1_details_gcp_eu_west_1
 + details_gcp_asia_east_1_details_gcp_eu_west_1
 + details_gcp_eu_west_1_details_gcp_eu_west_1
 + product_page_aws_sa_east_1_details_gcp_eu_west_1
 + product_page_aws_us_east_1_details_gcp_eu_west_1
 + product_page_gcp_asia_east_1_details_gcp_eu_west_1
 + product_page_gcp_eu_west_1_details_gcp_eu_west_1
 + product_page_gcp_us_west_1_details_gcp_eu_west_1
 + rating_gcp_asia_east_1_details_gcp_eu_west_1
 + rating_gcp_eu_west_1_details_gcp_eu_west_1
 + rating_gcp_us_west_1_details_gcp_eu_west_1
 + review_aws_sa_east_1_details_gcp_eu_west_1
 + review_aws_us_east_1_details_gcp_eu_west_1
 + review_gcp_eu_west_1_details_gcp_eu_west_1 <= 50000
_C23: details_aws_us_east_1_product_page_aws_sa_east_1
 + details_gcp_asia_east_1_product_page_aws_sa_east_1
 + details_gcp_eu_west_1_product_page_aws_sa_east_1
 + product_page_aws_sa_east_1_product_page_aws_sa_east_1
 + product_page_aws_us_east_1_product_page_aws_sa_east_1
 + product_page_gcp_asia_east_1_product_page_aws_sa_east_1
 + product_page_gcp_eu_west_1_product_page_aws_sa_east_1
 + product_page_gcp_us_west_1_product_page_aws_sa_east_1
 + rating_gcp_asia_east_1_product_page_aws_sa_east_1
 + rating_gcp_eu_west_1_product_page_aws_sa_east_1
 + rating_gcp_us_west_1_product_page_aws_sa_east_1
 + review_aws_sa_east_1_product_page_aws_sa_east_1
 + review_aws_us_east_1_product_page_aws_sa_east_1
 + review_gcp_eu_west_1_product_page_aws_sa_east_1 <= 30000
_C24: details_aws_us_east_1_review_aws_sa_east_1
 + details_gcp_asia_east_1_review_aws_sa_east_1
 + details_gcp_eu_west_1_review_aws_sa_east_1
 + product_page_aws_sa_east_1_review_aws_sa_east_1
 + product_page_aws_us_east_1_review_aws_sa_east_1
 + product_page_gcp_asia_east_1_review_aws_sa_east_1
 + product_page_gcp_eu_west_1_review_aws_sa_east_1
 + product_page_gcp_us_west_1_review_aws_sa_east_1
 + rating_gcp_asia_east_1_review_aws_sa_east_1
 + rating_gcp_eu_west_1_review_aws_sa_east_1
 + rating_gcp_us_west_1_review_aws_sa_east_1
 + review_aws_sa_east_1_review_aws_sa_east_1
 + review_aws_us_east_1_review_aws_sa_east_1
 + review_gcp_eu_west_1_review_aws_sa_east_1 <= 50000
_C25: details_aws_us_east_1_product_page_gcp_asia_east_1
 + details_gcp_asia_east_1_product_page_gcp_asia_east_1
 + details_gcp_eu_west_1_product_page_gcp_asia_east_1
 + product_page_aws_sa_east_1_product_page_gcp_asia_east_1
 + product_page_aws_us_east_1_product_page_gcp_asia_east_1
 + product_page_gcp_asia_east_1_product_page_gcp_asia_east_1
 + product_page_gcp_eu_west_1_product_page_gcp_asia_east_1
 + product_page_gcp_us_west_1_product_page_gcp_asia_east_1
 + rating_gcp_asia_east_1_product_page_gcp_asia_east_1
 + rating_gcp_eu_west_1_product_page_gcp_asia_east_1
 + rating_gcp_us_west_1_product_page_gcp_asia_east_1
 + review_aws_sa_east_1_product_page_gcp_asia_east_1
 + review_aws_us_east_1_product_page_gcp_asia_east_1
 + review_gcp_eu_west_1_product_page_gcp_asia_east_1 <= 30000
_C26: details_aws_us_east_1_details_gcp_asia_east_1
 + details_gcp_asia_east_1_details_gcp_asia_east_1
 + details_gcp_eu_west_1_details_gcp_asia_east_1
 + product_page_aws_sa_east_1_details_gcp_asia_east_1
 + product_page_aws_us_east_1_details_gcp_asia_east_1
 + product_page_gcp_asia_east_1_details_gcp_asia_east_1
 + product_page_gcp_eu_west_1_details_gcp_asia_east_1
 + product_page_gcp_us_west_1_details_gcp_asia_east_1
 + rating_gcp_asia_east_1_details_gcp_asia_east_1
 + rating_gcp_eu_west_1_details_gcp_asia_east_1
 + rating_gcp_us_west_1_details_gcp_asia_east_1
 + review_aws_sa_east_1_details_gcp_asia_east_1
 + review_aws_us_east_1_details_gcp_asia_east_1
 + review_gcp_eu_west_1_details_gcp_asia_east_1 <= 50000
_C27: details_aws_us_east_1_rating_gcp_asia_east_1
 + details_gcp_asia_east_1_rating_gcp_asia_east_1
 + details_gcp_eu_west_1_rating_gcp_asia_east_1
 + product_page_aws_sa_east_1_rating_gcp_asia_east_1
 + product_page_aws_us_east_1_rating_gcp_asia_east_1
 + product_page_gcp_asia_east_1_rating_gcp_asia_east_1
 + product_page_gcp_eu_west_1_rating_gcp_asia_east_1
 + product_page_gcp_us_west_1_rating_gcp_asia_east_1
 + rating_gcp_asia_east_1_rating_gcp_asia_east_1
 + rating_gcp_eu_west_1_rating_gcp_asia_east_1
 + rating_gcp_us_west_1_rating_gcp_asia_east_1
 + review_aws_sa_east_1_rating_gcp_asia_east_1
 + review_aws_us_east_1_rating_gcp_asia_east_1
 + review_gcp_eu_west_1_rating_gcp_asia_east_1 <= 50000
_C3: review_aws_us_east_1_rating_gcp_asia_east_1
 + review_aws_us_east_1_rating_gcp_eu_west_1
 + review_aws_us_east_1_rating_gcp_us_west_1 = 24508
_C4: product_page_gcp_us_west_1_review_aws_sa_east_1
 + product_page_gcp_us_west_1_review_aws_us_east_1
 + product_page_gcp_us_west_1_review_gcp_eu_west_1 = 28579
_C5: product_page_gcp_us_west_1_details_aws_us_east_1
 + product_page_gcp_us_west_1_details_gcp_asia_east_1
 + product_page_gcp_us_west_1_details_gcp_eu_west_1 = 28579
_C6: product_page_gcp_eu_west_1_review_aws_sa_east_1
 + product_page_gcp_eu_west_1_review_aws_us_east_1
 + product_page_gcp_eu_west_1_review_gcp_eu_west_1 = 28579
_C7: product_page_gcp_eu_west_1_details_aws_us_east_1
 + product_page_gcp_eu_west_1_details_gcp_asia_east_1
 + product_page_gcp_eu_west_1_details_gcp_eu_west_1 = 28579
_C8: review_gcp_eu_west_1_rating_gcp_asia_east_1
 + review_gcp_eu_west_1_rating_gcp_eu_west_1
 + review_gcp_eu_west_1_rating_gcp_us_west_1 = 24508
_C9: product_page_aws_sa_east_1_review_aws_sa_east_1
 + product_page_aws_sa_east_1_review_aws_us_east_1
 + product_page_aws_sa_east_1_review_gcp_eu_west_1 = 28579
Bounds
details_aws_us_east_1_details_aws_us_east_1 = 0
details_aws_us_east_1_details_gcp_asia_east_1 = 0
details_aws_us_east_1_details_gcp_eu_west_1 = 0
details_aws_us_east_1_product_page_aws_sa_east_1 = 0
details_aws_us_east_1_product_page_aws_us_east_1 = 0
details_aws_us_east_1_product_page_gcp_asia_east_1 = 0
details_aws_us_east_1_product_page_gcp_eu_west_1 = 0
details_aws_us_east_1_product_page_gcp_us_west_1 = 0
details_aws_us_east_1_rating_gcp_asia_east_1 = 0
details_aws_us_east_1_rating_gcp_eu_west_1 = 0
details_aws_us_east_1_rating_gcp_us_west_1 = 0
details_aws_us_east_1_review_aws_sa_east_1 = 0
details_aws_us_east_1_review_aws_us_east_1 = 0
details_aws_us_east_1_review_gcp_eu_west_1 = 0
details_gcp_asia_east_1_details_aws_us_east_1 = 0
details_gcp_asia_east_1_details_gcp_asia_east_1 = 0
details_gcp_asia_east_1_details_gcp_eu_west_1 = 0
details_gcp_asia_east_1_product_page_aws_sa_east_1 = 0
details_gcp_asia_east_1_product_page_aws_us_east_1 = 0
details_gcp_asia_east_1_product_page_gcp_asia_east_1 = 0
details_gcp_asia_east_1_product_page_gcp_eu_west_1 = 0
details_gcp_asia_east_1_product_page_gcp_us_west_1 = 0
details_gcp_asia_east_1_rating_gcp_asia_east_1 = 0
details_gcp_asia_east_1_rating_gcp_eu_west_1 = 0
details_gcp_asia_east_1_rating_gcp_us_west_1 = 0
details_gcp_asia_east_1_review_aws_sa_east_1 = 0
details_gcp_asia_east_1_review_aws_us_east_1 = 0
details_gcp_asia_east_1_review_gcp_eu_west_1 = 0
details_gcp_eu_west_1_details_aws_us_east_1 = 0
details_gcp_eu_west_1_details_gcp_asia_east_1 = 0
details_gcp_eu_west_1_details_gcp_eu_west_1 = 0
details_gcp_eu_west_1_product_page_aws_sa_east_1 = 0
details_gcp_eu_west_1_product_page_aws_us_east_1 = 0
details_gcp_eu_west_1_product_page_gcp_asia_east_1 = 0
details_gcp_eu_west_1_product_page_gcp_eu_west_1 = 0
details_gcp_eu_west_1_product_page_gcp_us_west_1 = 0
details_gcp_eu_west_1_rating_gcp_asia_east_1 = 0
details_gcp_eu_west_1_rating_gcp_eu_west_1 = 0
details_gcp_eu_west_1_rating_gcp_us_west_1 = 0
details_gcp_eu_west_1_review_aws_sa_east_1 = 0
details_gcp_eu_west_1_review_aws_us_east_1 = 0
details_gcp_eu_west_1_review_gcp_eu_west_1 = 0
product_page_aws_sa_east_1_details_aws_us_east_1 <= 28579
product_page_aws_sa_east_1_details_gcp_asia_east_1 <= 28579
product_page_aws_sa_east_1_details_gcp_eu_west_1 <= 28579
product_page_aws_sa_east_1_product_page_aws_sa_east_1 = 0
product_page_aws_sa_east_1_product_page_aws_us_east_1 = 0
product_page_aws_sa_east_1_product_page_gcp_asia_east_1 = 0
product_page_aws_sa_east_1_product_page_gcp_eu_west_1 = 0
product_page_aws_sa_east_1_product_page_gcp_us_west_1 = 0
product_page_aws_sa_east_1_rating_gcp_asia_east_1 = 0
product_page_aws_sa_east_1_rating_gcp_eu_west_1 = 0
product_page_aws_sa_east_1_rating_gcp_us_west_1 = 0
product_page_aws_sa_east_1_review_aws_sa_east_1 <= 28579
product_page_aws_sa_east_1_review_aws_us_east_1 <= 28579
product_page_aws_sa_east_1_review_gcp_eu_west_1 <= 28579
product_page_aws_us_east_1_details_aws_us_east_1 <= 28579
product_page_aws_us_east_1_details_gcp_asia_east_1 <= 28579
product_page_aws_us_east_1_details_gcp_eu_west_1 <= 28579
product_page_aws_us_east_1_product_page_aws_sa_east_1 = 0
product_page_aws_us_east_1_product_page_aws_us_east_1 = 0
product_page_aws_us_east_1_product_page_gcp_asia_east_1 = 0
product_page_aws_us_east_1_product_page_gcp_eu_west_1 = 0
product_page_aws_us_east_1_product_page_gcp_us_west_1 = 0
product_page_aws_us_east_1_rating_gcp_asia_east_1 = 0
product_page_aws_us_east_1_rating_gcp_eu_west_1 = 0
product_page_aws_us_east_1_rating_gcp_us_west_1 = 0
product_page_aws_us_east_1_review_aws_sa_east_1 <= 28579
product_page_aws_us_east_1_review_aws_us_east_1 <= 28579
product_page_aws_us_east_1_review_gcp_eu_west_1 <= 28579
product_page_gcp_asia_east_1_details_aws_us_east_1 <= 28579
product_page_gcp_asia_east_1_details_gcp_asia_east_1 <= 28579
product_page_gcp_asia_east_1_details_gcp_eu_west_1 <= 28579
product_page_gcp_asia_east_1_product_page_aws_sa_east_1 = 0
product_page_gcp_asia_east_1_product_page_aws_us_east_1 = 0
product_page_gcp_asia_east_1_product_page_gcp_asia_east_1 = 0
product_page_gcp_asia_east_1_product_page_gcp_eu_west_1 = 0
product_page_gcp_asia_east_1_product_page_gcp_us_west_1 = 0
product_page_gcp_asia_east_1_rating_gcp_asia_east_1 = 0
product_page_gcp_asia_east_1_rating_gcp_eu_west_1 = 0
product_page_gcp_asia_east_1_rating_gcp_us_west_1 = 0
product_page_gcp_asia_east_1_review_aws_sa_east_1 <= 28579
product_page_gcp_asia_east_1_review_aws_us_east_1 <= 28579
product_page_gcp_asia_east_1_review_gcp_eu_west_1 <= 28579
product_page_gcp_eu_west_1_details_aws_us_east_1 <= 28579
product_page_gcp_eu_west_1_details_gcp_asia_east_1 <= 28579
product_page_gcp_eu_west_1_details_gcp_eu_west_1 <= 28579
product_page_gcp_eu_west_1_product_page_aws_sa_east_1 = 0
product_page_gcp_eu_west_1_product_page_aws_us_east_1 = 0
product_page_gcp_eu_west_1_product_page_gcp_asia_east_1 = 0
product_page_gcp_eu_west_1_product_page_gcp_eu_west_1 = 0
product_page_gcp_eu_west_1_product_page_gcp_us_west_1 = 0
product_page_gcp_eu_west_1_rating_gcp_asia_east_1 = 0
product_page_gcp_eu_west_1_rating_gcp_eu_west_1 = 0
product_page_gcp_eu_west_1_rating_gcp_us_west_1 = 0
product_page_gcp_eu_west_1_review_aws_sa_east_1 <= 28579
product_page_gcp_eu_west_1_review_aws_us_east_1 <= 28579
product_page_gcp_eu_west_1_review_gcp_eu_west_1 <= 28579
product_page_gcp_us_west_1_details_aws_us_east_1 <= 28579
product_page_gcp_us_west_1_details_gcp_asia_east_1 <= 28579
product_page_gcp_us_west_1_details_gcp_eu_west_1 <= 28579
product_page_gcp_us_west_1_product_page_aws_sa_east_1 = 0
product_page_gcp_us_west_1_product_page_aws_us_east_1 = 0
product_page_gcp_us_west_1_product_page_gcp_asia_east_1 = 0
product_page_gcp_us_west_1_product_page_gcp_eu_west_1 = 0
product_page_gcp_us_west_1_product_page_gcp_us_west_1 = 0
product_page_gcp_us_west_1_rating_gcp_asia_east_1 = 0
product_page_gcp_us_west_1_rating_gcp_eu_west_1 = 0
product_page_gcp_us_west_1_rating_gcp_us_west_1 = 0
product_page_gcp_us_west_1_review_aws_sa_east_1 <= 28579
product_page_gcp_us_west_1_review_aws_us_east_1 <= 28579
product_page_gcp_us_west_1_review_gcp_eu_west_1 <= 28579
rating_gcp_asia_east_1_details_aws_us_east_1 = 0
rating_gcp_asia_east_1_details_gcp_asia_east_1 = 0
rating_gcp_asia_east_1_details_gcp_eu_west_1 = 0
rating_gcp_asia_east_1_product_page_aws_sa_east_1 = 0
rating_gcp_asia_east_1_product_page_aws_us_east_1 = 0
rating_gcp_asia_east_1_product_page_gcp_asia_east_1 = 0
rating_gcp_asia_east_1_product_page_gcp_eu_west_1 = 0
rating_gcp_asia_east_1_product_page_gcp_us_west_1 = 0
rating_gcp_asia_east_1_rating_gcp_asia_east_1 = 0
rating_gcp_asia_east_1_rating_gcp_eu_west_1 = 0
rating_gcp_asia_east_1_rating_gcp_us_west_1 = 0
rating_gcp_asia_east_1_review_aws_sa_east_1 = 0
rating_gcp_asia_east_1_review_aws_us_east_1 = 0
rating_gcp_asia_east_1_review_gcp_eu_west_1 = 0
rating_gcp_eu_west_1_details_aws_us_east_1 = 0
rating_gcp_eu_west_1_details_gcp_asia_east_1 = 0
rating_gcp_eu_west_1_details_gcp_eu_west_1 = 0
rating_gcp_eu_west_1_product_page_aws_sa_east_1 = 0
rating_gcp_eu_west_1_product_page_aws_us_east_1 = 0
rating_gcp_eu_west_1_product_page_gcp_asia_east_1 = 0
rating_gcp_eu_west_1_product_page_gcp_eu_west_1 = 0
rating_gcp_eu_west_1_product_page_gcp_us_west_1 = 0
rating_gcp_eu_west_1_rating_gcp_asia_east_1 = 0
rating_gcp_eu_west_1_rating_gcp_eu_west_1 = 0
rating_gcp_eu_west_1_rating_gcp_us_west_1 = 0
rating_gcp_eu_west_1_review_aws_sa_east_1 = 0
rating_gcp_eu_west_1_review_aws_us_east_1 = 0
rating_gcp_eu_west_1_review_gcp_eu_west_1 = 0
rating_gcp_us_west_1_details_aws_us_east_1 = 0
rating_gcp_us_west_1_details_gcp_asia_east_1 = 0
rating_gcp_us_west_1_details_gcp_eu_west_1 = 0
rating_gcp_us_west_1_product_page_aws_sa_east_1 = 0
rating_gcp_us_west_1_product_page_aws_us_east_1 = 0
rating_gcp_us_west_1_product_page_gcp_asia_east_1 = 0
rating_gcp_us_west_1_product_page_gcp_eu_west_1 = 0
rating_gcp_us_west_1_product_page_gcp_us_west_1 = 0
rating_gcp_us_west_1_rating_gcp_asia_east_1 = 0
rating_gcp_us_west_1_rating_gcp_eu_west_1 = 0
rating_gcp_us_west_1_rating_gcp_us_west_1 = 0
rating_gcp_us_west_1_review_aws_sa_east_1 = 0
rating_gcp_us_west_1_review_aws_us_east_1 = 0
rating_gcp_us_west_1_review_gcp_eu_west_1 = 0
review_aws_sa_east_1_details_aws_us_east_1 = 0
review_aws_sa_east_1_details_gcp_asia_east_1 = 0
review_aws_sa_east_1_details_gcp_eu_west_1 = 0
review_aws_sa_east_1_product_page_aws_sa_east_1 = 0
review_aws_sa_east_1_product_page_aws_us_east_1 = 0
review_aws_sa_east_1_product_page_gcp_asia_east_1 = 0
review_aws_sa_east_1_product_page_gcp_eu_west_1 = 0
review_aws_sa_east_1_product_page_gcp_us_west_1 = 0
review_aws_sa_east_1_rating_gcp_asia_east_1 <= 14953
review_aws_sa_east_1_rating_gcp_eu_west_1 <= 14953
review_aws_sa_east_1_rating_gcp_us_west_1 <= 14953
review_aws_sa_east_1_review_aws_sa_east_1 = 0
review_aws_sa_east_1_review_aws_us_east_1 = 0
review_aws_sa_east_1_review_gcp_eu_west_1 = 0
review_aws_us_east_1_details_aws_us_east_1 = 0
review_aws_us_east_1_details_gcp_asia_east_1 = 0
review_aws_us_east_1_details_gcp_eu_west_1 = 0
review_aws_us_east_1_product_page_aws_sa_east_1 = 0
review_aws_us_east_1_product_page_aws_us_east_1 = 0
review_aws_us_east_1_product_page_gcp_asia_east_1 = 0
review_aws_us_east_1_product_page_gcp_eu_west_1 = 0
review_aws_us_east_1_product_page_gcp_us_west_1 = 0
review_aws_us_east_1_rating_gcp_asia_east_1 <= 24508
review_aws_us_east_1_rating_gcp_eu_west_1 <= 24508
review_aws_us_east_1_rating_gcp_us_west_1 <= 24508
review_aws_us_east_1_review_aws_sa_east_1 = 0
review_aws_us_east_1_review_aws_us_east_1 = 0
review_aws_us_east_1_review_gcp_eu_west_1 = 0
review_gcp_eu_west_1_details_aws_us_east_1 = 0
review_gcp_eu_west_1_details_gcp_asia_east_1 = 0
review_gcp_eu_west_1_details_gcp_eu_west_1 = 0
review_gcp_eu_west_1_product_page_aws_sa_east_1 = 0
review_gcp_eu_west_1_product_page_aws_us_east_1 = 0
review_gcp_eu_west_1_product_page_gcp_asia_east_1 = 0
review_gcp_eu_west_1_product_page_gcp_eu_west_1 = 0
review_gcp_eu_west_1_product_page_gcp_us_west_1 = 0
review_gcp_eu_west_1_rating_gcp_asia_east_1 <= 24508
review_gcp_eu_west_1_rating_gcp_eu_west_1 <= 24508
review_gcp_eu_west_1_rating_gcp_us_west_1 <= 24508
review_gcp_eu_west_1_review_aws_sa_east_1 = 0
review_gcp_eu_west_1_review_aws_us_east_1 = 0
review_gcp_eu_west_1_review_gcp_eu_west_1 = 0
End
